; benchmark generated from python API
(set-info :status unknown)
(declare-datatypes ((RealState 0)) (((RMk1 (rval1 Real)) (RMk2 (rval2 Real)))))
 (assert
 (exists ((|v11:0_st| RealState) (val!5044 Real) )(exists ((|v10:1_st| RealState) (val!5045 Real) )(exists ((|v9:2_st| RealState) (val!5046 Real) )(exists ((|v8:3_st| RealState) (val!5047 Real) )(forall ((|v7:4| Real) )(forall ((|v6:5| Real) )(forall ((|v5:6| Real) )(forall ((|v4:7| Real) )(exists ((|v3:8_st| RealState) (val!5048 Real) )(exists ((|v2:9_st| RealState) (val!5049 Real) )(exists ((|v1:10_st| RealState) (val!5050 Real) )(exists ((|v0:11_st| RealState) (val!5051 Real) )(let ((?x721 (rval2 |v0:11_st|)))
 (let ((?x3069 (* 8.0 ?x721)))
 (let ((?x2397 (rval2 |v3:8_st|)))
 (let ((?x496 (- 19.0)))
 (let ((?x2464 (* ?x496 ?x2397)))
 (let (($x3045 (<= (+ (+ (+ (* (- 7.0) (rval2 |v11:0_st|)) (* 14.0 |v4:7|)) ?x2464) ?x3069) 10.0)))
 (let ((?x2250 (rval2 |v10:1_st|)))
 (let ((?x1968 (* 20.0 ?x2250)))
 (let ((?x3077 (+ (+ (+ (* 7.0 ?x721) (* (- 20.0) |v4:7|)) (* (- 15.0) ?x2250)) ?x1968)))
 (let ((?x1319 (- 13.0)))
 (let ((?x111 (+ (+ (+ (* 9.0 |v5:6|) (* (- 20.0) |v5:6|)) (* 4.0 |v7:4|)) (* (- 10.0) (rval2 |v2:9_st|)))))
 (let ((?x2946 (- 12.0)))
 (let ((?x1564 (+ (+ (+ (* (- 20.0) |v4:7|) (* ?x496 (rval2 |v2:9_st|))) (* 13.0 |v7:4|)) (* (- 14.0) ?x2250))))
 (let (($x1789 (and (and (<= ?x1564 ?x2946) (<= ?x111 ?x1319)) (and (<= ?x3077 19.0) $x3045))))
 (let ((?x71 (- 9.0)))
 (let (($x3414 (<= (+ (+ (+ ?x3069 |v4:7|) (* 17.0 ?x721)) (* (- 8.0) (rval2 |v9:2_st|))) ?x71)))
 (let ((?x1642 (- 18.0)))
 (let ((?x3375 (* ?x1642 ?x721)))
 (let ((?x387 (+ (+ (+ (* 2.0 ?x2250) (* ?x2946 (rval2 |v1:10_st|))) (* (- 3.0) |v7:4|)) ?x3375)))
 (let ((?x2648 (- 8.0)))
 (let ((?x1149 (* 10.0 |v6:5|)))
 (let ((?x3401 (+ (+ (+ (* 15.0 ?x721) (* (- 5.0) (rval2 |v1:10_st|))) (* 10.0 ?x2250)) ?x1149)))
 (let ((?x220 (rval2 |v11:0_st|)))
 (let ((?x1033 (* 18.0 ?x220)))
 (let ((?x1978 (+ (+ (+ (* 14.0 |v4:7|) (* (- 20.0) |v7:4|)) (* (- 16.0) |v4:7|)) ?x1033)))
 (let (($x1556 (or (and (or (<= ?x1978 ?x496) (<= ?x3401 ?x2648)) (and (<= ?x387 ?x1642) $x3414)) $x1789)))
 (let ((?x645 (+ (+ (+ |v7:4| (* (- 20.0) ?x220)) (* (- 17.0) (rval2 |v2:9_st|))) (* (- 14.0) ?x721))))
 (let ((?x2310 (+ (+ (+ (* 12.0 |v4:7|) (* ?x496 (rval2 |v9:2_st|))) (* 11.0 |v4:7|)) (* (- 15.0) ?x721))))
 (let ((?x1344 (* 16.0 ?x2397)))
 (let ((?x1509 (+ (+ (* (- 20.0) |v5:6|) (* 5.0 |v5:6|)) (* (- 17.0) (rval2 |v1:10_st|)))))
 (let ((?x3071 (rval2 |v8:3_st|)))
 (let ((?x1194 (* ?x1319 ?x3071)))
 (let ((?x456 (+ (+ (+ (* (- 7.0) ?x721) (* ?x1642 ?x220)) (* (- 16.0) ?x2397)) ?x1194)))
 (let (($x1226 (and (or (<= ?x456 14.0) (<= (+ ?x1509 ?x1344) 2.0)) (and (<= ?x2310 5.0) (<= ?x645 16.0)))))
 (let ((?x2475 (+ (+ (+ (* 5.0 (rval2 |v2:9_st|)) (* 10.0 ?x220)) (* 12.0 |v4:7|)) (* (- 17.0) ?x3071))))
 (let ((?x3407 (* 2.0 |v6:5|)))
 (let ((?x2723 (+ (+ (+ (* (- 10.0) ?x220) (* (- 15.0) (rval2 |v2:9_st|))) ?x3407) (* 11.0 ?x2397))))
 (let ((?x2072 (- 14.0)))
 (let ((?x273 (rval2 |v2:9_st|)))
 (let ((?x1524 (* 12.0 ?x273)))
 (let ((?x2327 (+ (+ (+ (* (- 15.0) (rval2 |v1:10_st|)) (* 4.0 ?x721)) (* 17.0 ?x2397)) ?x1524)))
 (let ((?x1709 (- 16.0)))
 (let ((?x1345 (+ (+ (+ (* 0.0 (rval2 |v9:2_st|)) (* ?x2072 |v6:5|)) (* 17.0 |v7:4|)) (* (- 5.0) ?x2397))))
 (let (($x1334 (and (and (<= ?x1345 ?x1709) (<= ?x2327 ?x2072)) (and (<= ?x2723 2.0) (<= ?x2475 1.0)))))
 (let ((?x3147 (rval2 |v9:2_st|)))
 (let ((?x961 (- 2.0)))
 (let ((?x2181 (* ?x961 ?x3147)))
 (let (($x104 (<= (+ (+ (+ (* ?x1709 |v5:6|) (* 11.0 |v4:7|)) (* ?x2648 ?x3071)) ?x2181) ?x2072)))
 (let ((?x1944 (+ (+ (+ (* 5.0 |v6:5|) (* (- 15.0) ?x2250)) (* 10.0 |v5:6|)) (* (- 3.0) ?x220))))
 (let ((?x2749 (- 17.0)))
 (let ((?x1712 (+ (+ (+ (* ?x496 ?x220) (* 16.0 |v5:6|)) (* 16.0 |v5:6|)) (* (- 10.0) ?x2250))))
 (let ((?x3123 (+ (+ (+ (* ?x71 |v7:4|) ?x2181) (* (- 6.0) ?x721)) (* 13.0 (rval2 |v1:10_st|)))))
 (let (($x2016 (and (and (<= ?x3123 12.0) (<= ?x1712 ?x2749)) (and (<= ?x1944 13.0) $x104))))
 (let ((?x231 (+ (+ (+ (* ?x961 |v4:7|) (* 19.0 ?x220)) (* ?x1709 ?x3071)) (* 17.0 ?x3071))))
 (let ((?x1415 (- 15.0)))
 (let ((?x1203 (+ (+ (+ (* (- 1.0) |v5:6|) (* (- 7.0) |v7:4|)) (* 10.0 ?x2250)) ?x1149)))
 (let ((?x2096 (- 10.0)))
 (let ((?x2555 (* ?x2096 |v6:5|)))
 (let (($x1592 (<= (+ (+ (+ (* (- 1.0) ?x3147) (* 15.0 ?x3071)) ?x2464) ?x2555) ?x71)))
 (let ((?x1105 (+ (+ (+ (* ?x2072 ?x220) (* 16.0 ?x721)) (* ?x961 ?x2250)) (* ?x71 ?x273))))
 (let (($x2381 (and (and (<= ?x1105 18.0) $x1592) (and (<= ?x1203 ?x1415) (<= ?x231 1.0)))))
 (let (($x1185 (<= (+ (+ (+ ?x1194 (* ?x496 |v4:7|)) (* ?x1642 |v7:4|)) (* ?x2749 ?x2397)) ?x1642)))
 (let ((?x342 (* ?x2072 |v4:7|)))
 (let (($x1984 (<= (+ (+ (+ (* 4.0 |v5:6|) (* ?x496 ?x721)) (* 17.0 |v6:5|)) ?x342) ?x1415)))
 (let (($x606 (<= (+ (+ (+ (* ?x2648 ?x3147) ?x2181) (* ?x1709 |v5:6|)) (* (- 11.0) ?x3147)) ?x1709)))
 (let ((?x615 (* 6.0 |v4:7|)))
 (let ((?x2819 (+ (+ (+ (* 4.0 ?x273) (* 18.0 |v5:6|)) (* ?x1642 (rval2 |v1:10_st|))) ?x615)))
 (let ((?x977 (- 6.0)))
 (let ((?x453 (* ?x977 |v6:5|)))
 (let ((?x440 (+ (+ (+ (* ?x2648 ?x2397) (* (- 11.0) |v5:6|)) (* ?x496 (rval2 |v1:10_st|))) ?x453)))
 (let ((?x184 (+ (+ (+ (* (- 4.0) ?x2250) (* 5.0 |v6:5|)) (* 16.0 ?x2250)) (* ?x2749 ?x721))))
 (let ((?x1016 (* 11.0 ?x3071)))
 (let ((?x1477 (- 5.0)))
 (let ((?x106 (* ?x1477 |v4:7|)))
 (let (($x1773 (<= (+ (+ (+ (* ?x2096 (rval2 |v1:10_st|)) (* 2.0 (rval2 |v1:10_st|))) ?x106) ?x1016) ?x977)))
 (let ((?x2344 (* 16.0 ?x2250)))
 (let ((?x1221 (+ (+ (+ (* 15.0 (rval2 |v1:10_st|)) (* 8.0 ?x3071)) (* (- 1.0) ?x220)) ?x2344)))
 (let (($x1820 (and (and (<= ?x1221 6.0) $x1773) (and (<= ?x184 0.0) (<= ?x440 20.0)))))
 (let (($x3470 (or (and $x1820 (and (and (<= ?x2819 ?x1709) $x606) (and $x1984 $x1185))) (and $x2381 $x2016))))
 (let ((?x1689 (* 20.0 |v4:7|)))
 (let (($x635 (<= (+ (+ (+ (* 19.0 ?x721) (* 8.0 ?x3071)) (* 14.0 ?x721)) ?x1689) ?x2096)))
 (let ((?x2572 (- 4.0)))
 (let ((?x656 (+ (+ (+ (* 5.0 |v4:7|) ?x453) (* 11.0 (rval2 |v1:10_st|))) (* ?x1477 ?x3147))))
 (let ((?x634 (+ (+ (+ (* 15.0 |v4:7|) (* ?x2648 ?x2250)) (* 5.0 |v4:7|)) (* ?x2946 ?x2397))))
 (let ((?x3184 (+ (+ (+ (* 19.0 |v5:6|) (* ?x1642 ?x3147)) (* 18.0 ?x721)) (* 14.0 |v5:6|))))
 (let (($x709 (and (and (<= ?x3184 5.0) (<= ?x634 0.0)) (and (<= ?x656 ?x2572) $x635))))
 (let ((?x3155 (* 0.0 ?x3147)))
 (let (($x3211 (<= (+ (+ (+ (* ?x961 ?x220) (* ?x1709 |v7:4|)) (* 10.0 |v7:4|)) ?x3155) 18.0)))
 (let ((?x2896 (* 13.0 ?x721)))
 (let (($x1869 (<= (+ (+ (+ (* ?x71 |v5:6|) (* ?x1477 ?x3071)) (* ?x2072 ?x2397)) ?x2896) 14.0)))
 (let ((?x2387 (- 1.0)))
 (let ((?x1499 (+ (+ (+ (* 18.0 (rval2 |v1:10_st|)) (* 17.0 ?x273)) (* ?x1415 ?x220)) (* 17.0 (rval2 |v1:10_st|)))))
 (let ((?x1654 (+ (+ (+ (* 2.0 |v4:7|) ?x3375) (* (- 11.0) |v6:5|)) (* 14.0 |v6:5|))))
 (let (($x3111 (and (and (and (<= ?x1654 ?x977) (<= ?x1499 ?x2387)) (and $x1869 $x3211)) $x709)))
 (let ((?x3138 (rval2 |v1:10_st|)))
 (let ((?x965 (* ?x2096 ?x3138)))
 (let (($x2436 (<= (+ (+ (+ (* ?x1477 |v5:6|) (* 6.0 ?x273)) (* ?x2946 ?x3138)) ?x965) ?x1642)))
 (let ((?x2474 (* ?x2648 ?x3071)))
 (let (($x1400 (<= (+ (+ (+ (* ?x2946 ?x3138) (* 5.0 ?x2397)) (* ?x1477 ?x2250)) ?x2474) 5.0)))
 (let ((?x3418 (+ (+ (+ (* ?x71 ?x220) (* 9.0 ?x3071)) (* 11.0 |v7:4|)) (* 6.0 ?x2397))))
 (let ((?x238 (+ (+ (+ (* 0.0 ?x2250) (* (- 3.0) |v4:7|)) (* ?x961 ?x2397)) (* ?x2749 ?x2250))))
 (let ((?x2503 (- 3.0)))
 (let ((?x1432 (* 8.0 ?x2397)))
 (let ((?x2157 (+ (+ (+ (* 18.0 |v6:5|) (* (- 7.0) ?x3071)) (* 14.0 |v4:7|)) ?x1432)))
 (let (($x29 (and (<= (+ (+ (+ ?x1344 ?x3069) (* ?x1319 ?x2250)) (* 16.0 ?x721)) 7.0) (<= ?x2157 ?x2503))))
 (let ((?x3044 (- 20.0)))
 (let ((?x3446 (+ (+ (+ (* ?x1319 ?x721) (* 5.0 ?x3071)) (* 2.0 ?x2397)) (* 16.0 ?x3147))))
 (let ((?x2152 (+ (+ (+ (* 7.0 ?x3138) (* 0.0 |v5:6|)) (* 8.0 ?x3147)) (* ?x2648 ?x721))))
 (let (($x1806 (and (and (and (<= ?x2152 20.0) (<= ?x3446 ?x3044)) $x29) (and (and (<= ?x238 ?x1319) (<= ?x3418 10.0)) (or $x1400 $x2436)))))
 (let ((?x506 (+ (+ (+ (* ?x1319 ?x2397) (* 3.0 |v4:7|)) (* ?x1319 ?x3138)) (* 15.0 ?x2397))))
 (let (($x2435 (<= (+ (+ (+ (* ?x961 |v7:4|) (* ?x2096 |v4:7|)) ?x106) (* 18.0 ?x3147)) 13.0)))
 (let (($x3459 (<= (+ (+ (+ ?x2397 (* 2.0 ?x273)) (* 5.0 ?x220)) (* 5.0 ?x3147)) 9.0)))
 (let (($x2738 (<= (+ (+ (+ (* 9.0 ?x2397) ?x273) (* 18.0 ?x3147)) (* ?x977 |v4:7|)) ?x496)))
 (let ((?x514 (* 17.0 ?x2250)))
 (let (($x1779 (<= (+ (+ (+ (* 7.0 |v7:4|) (* 17.0 |v5:6|)) (* 20.0 ?x721)) ?x514) 2.0)))
 (let (($x2139 (<= (+ (+ (+ (* 18.0 ?x2397) (* (- 11.0) |v4:7|)) (* ?x2946 |v5:6|)) |v7:4|) 8.0)))
 (let ((?x3003 (+ (+ (+ (* 0.0 ?x3138) (* ?x3044 |v6:5|)) (* ?x961 ?x721)) (* 9.0 ?x3147))))
 (let ((?x1133 (* 7.0 ?x3071)))
 (let (($x719 (<= (+ (+ (+ (* ?x2572 ?x2397) (* 12.0 ?x3147)) (* 5.0 |v6:5|)) ?x1133) ?x2503)))
 (let (($x752 (and (and (and $x719 (<= ?x3003 7.0)) (or $x2139 $x1779)) (and (or $x2738 $x3459) (and $x2435 (<= ?x506 ?x2946))))))
 (let ((?x17 (+ (+ (+ (* 13.0 |v7:4|) (* ?x1319 ?x220)) (* ?x1709 ?x2397)) (* (- 11.0) ?x3071))))
 (let (($x860 (and (<= (+ (+ (+ ?x2555 ?x2344) (* ?x2503 ?x3071)) (* ?x3044 |v6:5|)) ?x977) (<= ?x17 4.0))))
 (let (($x1197 (<= (+ (+ (+ ?x3138 (* ?x1709 |v4:7|)) (* ?x1642 |v4:7|)) (* ?x2648 |v6:5|)) ?x496)))
 (let ((?x3075 (* ?x977 |v7:4|)))
 (let (($x1746 (<= (+ (+ (+ (* (- 11.0) ?x3138) (* 2.0 |v7:4|)) (* ?x2503 ?x3138)) ?x3075) ?x71)))
 (let ((?x210 (* 3.0 ?x220)))
 (let (($x2554 (<= (+ (+ (+ (* ?x2072 ?x3071) (* 8.0 ?x3138)) (* ?x1415 ?x3138)) ?x210) ?x961)))
 (let ((?x1244 (+ (+ (+ (* ?x496 ?x3138) (* ?x3044 ?x273)) (* ?x1319 ?x2250)) (* 20.0 ?x273))))
 (let (($x2928 (or (<= (+ (+ (+ (* ?x1709 |v6:5|) ?x2555) ?x3147) (* ?x1709 ?x2250)) ?x1709) (<= (+ (+ (+ ?x3075 (* 19.0 ?x3147)) ?x1968) (* ?x2572 |v6:5|)) ?x1709))))
 (let (($x1273 (and (and $x2928 (and (<= ?x1244 ?x977) $x2554)) (and (and $x1746 $x1197) $x860))))
 (let (($x3266 (or (and (and $x1273 $x752) (and $x1806 $x3111)) (and $x3470 (and (and $x1334 $x1226) $x1556)))))
 (let (($x1161 (not (= |v0:11_st| (RMk1 val!5051)))))
 (let (($x1272 (not (= |v1:10_st| (RMk1 val!5050)))))
 (let (($x1346 (not (= |v2:9_st| (RMk1 val!5049)))))
 (let (($x2005 (not (= |v3:8_st| (RMk1 val!5048)))))
 (let (($x1367 (not (= |v8:3_st| (RMk1 val!5047)))))
 (let (($x3058 (not (= |v9:2_st| (RMk1 val!5046)))))
 (let (($x1294 (not (= |v10:1_st| (RMk1 val!5045)))))
 (let (($x2915 (not (= |v11:0_st| (RMk1 val!5044)))))
 (and $x2915 $x1294 $x3058 $x1367 $x2005 $x1346 $x1272 $x1161 $x3266)))))))))))))))))))))))))))))))))))))))))))))))))))))))))))))))))))))))))))))))))))))))))))))))))))))))))))))))))))))))))))))))))))))))))))))
 )
 )
 )
 )
 )
 )
 )
 )
 )
 )
 )
 )
(check-sat)
